(set-logic QF_BV)
(declare-fun count1_0 () (_ BitVec 16))
(declare-fun flashclock1_1 () (_ BitVec 1))
(declare-fun rst_1 () (_ BitVec 1))
(declare-fun sflashclock1_0 () (_ BitVec 1))
(define-fun $e1 () (_ BitVec 16) (_ bv0 16))
(define-fun $e2 () (_ BitVec 1) (ite (= count1_0 (bvnot $e1)) #b1 #b0))
(define-fun $e3 () (_ BitVec 1) (ite (= flashclock1_1 (bvnot sflashclock1_0)) #b1 #b0))
(define-fun $e4 () (_ BitVec 1) (ite (= flashclock1_1 sflashclock1_0) #b1 #b0))
(define-fun $e5 () (_ BitVec 1) (bvand $e2 (bvnot $e3)))
(define-fun $e6 () (_ BitVec 1) (bvand (bvnot $e2) (bvnot $e4)))
(define-fun $e7 () (_ BitVec 1) (bvand (bvnot $e5) (bvnot $e6)))
(define-fun $e8 () (_ BitVec 1) (bvand (bvnot flashclock1_1) rst_1))
(define-fun $e9 () (_ BitVec 1) (bvand (bvnot rst_1) (bvnot $e7)))
(assert (not (= (bvnot $e8) #b0)))
(assert (not (= (bvnot $e9) #b0)))
(check-sat)
(exit)
